11 14
11 12
7 8
10 18
14 13
13 20
12 12
12 3
10 8
8 7
5 11
12 18
15 6
12 8
6 3
11 3
14 8
15 11
14 13
9 14
14 8
10 19
7 20
8 15
6 20
14 11
9 7
13 14
15 18
12 10
11 11
11 20
10 4
11 18
10 7
6 18
5 15
15 13
8 10
12 6
9 17
9 4
12 19
11 19
13 12
15 6
10 15
14 8
7 14
11 16
9 19
8 4
7 19
15 16
6 8
6 18
8 6
5 5
9 17
12 16
10 14
15 20
9 17
9 19
13 6
7 13
11 16
12 8
8 11
8 17
12 11
10 7
10 11
14 15
8 19
9 13
13 7
11 6
8 14
11 11
10 20
6 13
13 20
11 17
5 7
5 17
9 16
9 14
15 3
14 5
7 16
10 13
7 16
11 8
6 7
12 17
12 16
12 3
14 17
12 14